
Gurobi 7.0.1 (win64, Python) logging started 01/16/17 13:01:37


Gurobi 7.0.1 (win64, Python) logging started 01/16/17 13:01:53


Gurobi 7.0.1 (win64, Python) logging started 01/16/17 13:02:31


Gurobi 7.0.1 (win64, Python) logging started 01/16/17 13:02:47


Gurobi 7.0.1 (win64, Python) logging started 01/16/17 13:06:36


Gurobi 7.0.1 (win64, Python) logging started 01/16/17 13:07:09


Gurobi 7.0.1 (win64, Python) logging started 01/16/17 13:10:01


Gurobi 7.0.1 (win64, Python) logging started 01/16/17 13:10:51


Gurobi 7.0.1 (win64, Python) logging started 01/16/17 13:14:24


Gurobi 7.0.1 (win64, Python) logging started 01/16/17 13:15:01


Gurobi 7.0.1 (win64, Python) logging started 01/16/17 13:19:52


Gurobi 7.0.1 (win64, Python) logging started 01/16/17 13:21:44


Gurobi 7.0.1 (win64, Python) logging started 01/16/17 13:29:48


Gurobi 7.0.1 (win64, Python) logging started 01/16/17 13:48:16


Gurobi 7.0.1 (win64, Python) logging started 01/16/17 13:55:38


Gurobi 7.0.1 (win64, Python) logging started 01/16/17 13:55:56


Gurobi 7.0.1 (win64, Python) logging started 01/16/17 13:56:49


Gurobi 7.0.1 (win64, Python) logging started 01/16/17 13:57:08


Gurobi 7.0.1 (win64, Python) logging started 01/16/17 14:00:39


Gurobi 7.0.1 (win64, Python) logging started 01/16/17 14:02:15


Gurobi 7.0.1 (win64, Python) logging started 01/16/17 14:03:10


Gurobi 7.0.1 (win64, Python) logging started 01/16/17 14:04:56


Gurobi 7.0.1 (win64, Python) logging started 01/16/17 14:05:29


Gurobi 7.0.1 (win64, Python) logging started 01/16/17 14:06:21


Gurobi 7.0.1 (win64, Python) logging started 01/16/17 14:06:38


Gurobi 7.0.1 (win64, Python) logging started 01/16/17 14:07:37


Gurobi 7.0.1 (win64, Python) logging started 01/16/17 14:08:07


Gurobi 7.0.1 (win64, Python) logging started 01/16/17 14:08:55


Gurobi 7.0.1 (win64, Python) logging started 01/16/17 14:28:53


Gurobi 7.0.1 (win64, Python) logging started 01/16/17 14:31:12


Gurobi 7.0.1 (win64, Python) logging started 01/16/17 14:42:39


Gurobi 7.0.1 (win64, Python) logging started 01/16/17 14:43:27


Gurobi 7.0.1 (win64, Python) logging started 01/16/17 14:43:40


Gurobi 7.0.1 (win64, Python) logging started 01/16/17 14:49:17


Gurobi 7.0.1 (win64, Python) logging started 01/16/17 14:49:36


Gurobi 7.0.1 (win64, Python) logging started 01/16/17 14:49:49


Gurobi 7.0.1 (win64, Python) logging started 01/16/17 14:51:28


Gurobi 7.0.1 (win64, Python) logging started 01/16/17 14:55:07


Gurobi 7.0.1 (win64, Python) logging started 01/16/17 14:55:44


Gurobi 7.0.1 (win64, Python) logging started 01/16/17 15:04:02


Gurobi 7.0.1 (win64, Python) logging started 01/16/17 15:32:23


Gurobi 7.0.1 (win64, Python) logging started 01/16/17 15:35:36


Gurobi 7.0.1 (win64, Python) logging started 01/16/17 15:36:49


Gurobi 7.0.1 (win64, Python) logging started 01/16/17 15:37:04


Gurobi 7.0.1 (win64, Python) logging started 01/16/17 15:37:52


Gurobi 7.0.1 (win64, Python) logging started 01/16/17 15:38:06


Gurobi 7.0.1 (win64, Python) logging started 01/16/17 15:41:02


Gurobi 7.0.1 (win64, Python) logging started 01/16/17 15:41:17


Gurobi 7.0.1 (win64, Python) logging started 01/16/17 16:09:15


Gurobi 7.0.1 (win64, Python) logging started 01/16/17 16:09:24


Gurobi 7.0.1 (win64, Python) logging started 01/17/17 11:10:02


Gurobi 7.0.1 (win64, Python) logging started 01/17/17 11:12:19


Gurobi 7.0.1 (win64, Python) logging started 01/17/17 11:13:53


Gurobi 7.0.1 (win64, Python) logging started 01/17/17 11:23:24


Gurobi 7.0.1 (win64, Python) logging started 01/17/17 11:24:03


Gurobi 7.0.1 (win64, Python) logging started 01/17/17 11:29:36


Gurobi 7.0.1 (win64, Python) logging started 01/17/17 11:29:41


Gurobi 7.0.1 (win64, Python) logging started 01/17/17 11:33:35


Gurobi 7.0.1 (win64, Python) logging started 01/17/17 11:34:14


Gurobi 7.0.1 (win64, Python) logging started 01/17/17 11:34:47


Gurobi 7.0.1 (win64, Python) logging started 01/17/17 11:34:56


Gurobi 7.0.1 (win64, Python) logging started 01/17/17 11:35:32


Gurobi 7.0.1 (win64, Python) logging started 01/17/17 11:36:26


Gurobi 7.0.1 (win64, Python) logging started 01/17/17 11:37:16


Gurobi 7.0.1 (win64, Python) logging started 01/17/17 11:37:32


Gurobi 7.0.1 (win64, Python) logging started 01/17/17 11:37:46


Gurobi 7.0.1 (win64, Python) logging started 01/17/17 11:37:57


Gurobi 7.0.1 (win64, Python) logging started 01/17/17 11:38:01


Gurobi 7.0.1 (win64, Python) logging started 01/17/17 11:38:13


Gurobi 7.0.1 (win64, Python) logging started 01/17/17 11:40:47


Gurobi 7.0.1 (win64, Python) logging started 01/17/17 11:40:57


Gurobi 7.0.1 (win64, Python) logging started 01/17/17 11:46:52


Gurobi 7.0.1 (win64, Python) logging started 01/17/17 11:47:05


Gurobi 7.0.1 (win64, Python) logging started 01/17/17 11:49:15


Gurobi 7.0.1 (win64, Python) logging started 01/17/17 12:11:36


Gurobi 7.0.1 (win64, Python) logging started 01/17/17 12:11:48


Gurobi 7.0.1 (win64, Python) logging started 01/17/17 12:12:12


Gurobi 7.0.1 (win64, Python) logging started 01/17/17 12:15:58


Gurobi 7.0.1 (win64, Python) logging started 01/17/17 12:24:50


Gurobi 7.0.1 (win64, Python) logging started 01/17/17 12:25:49


Gurobi 7.0.1 (win64, Python) logging started 01/17/17 12:25:53


Gurobi 7.0.1 (win64, Python) logging started 01/17/17 12:35:13


Gurobi 7.0.1 (win64, Python) logging started 01/17/17 12:35:44


Gurobi 7.0.1 (win64, Python) logging started 01/17/17 12:35:56


Gurobi 7.0.1 (win64, Python) logging started 01/17/17 12:51:45


Gurobi 7.0.1 (win64, Python) logging started 01/17/17 12:51:50


Gurobi 7.0.1 (win64, Python) logging started 01/17/17 13:22:58


Gurobi 7.0.1 (win64, Python) logging started 01/17/17 13:28:16


Gurobi 7.0.1 (win64, Python) logging started 01/17/17 13:28:49


Gurobi 7.0.1 (win64, Python) logging started 01/17/17 13:30:41


Gurobi 7.0.1 (win64, Python) logging started 01/17/17 13:30:55


Gurobi 7.0.1 (win64, Python) logging started 01/17/17 13:32:49


Gurobi 7.0.1 (win64, Python) logging started 01/17/17 13:33:09


Gurobi 7.0.1 (win64, Python) logging started 01/17/17 13:48:37


Gurobi 7.0.1 (win64, Python) logging started 01/17/17 13:49:11


Gurobi 7.0.1 (win64, Python) logging started 01/17/17 14:20:11


Gurobi 7.0.1 (win64, Python) logging started 01/17/17 14:34:44


Gurobi 7.0.1 (win64, Python) logging started 01/17/17 14:36:21


Gurobi 7.0.1 (win64, Python) logging started 01/17/17 14:37:19


Gurobi 7.0.1 (win64, Python) logging started 01/17/17 14:37:25


Gurobi 7.0.1 (win64, Python) logging started 01/17/17 14:37:31


Gurobi 7.0.1 (win64, Python) logging started 01/17/17 14:37:38


Gurobi 7.0.1 (win64, Python) logging started 01/17/17 14:39:33


Gurobi 7.0.1 (win64, Python) logging started 01/17/17 14:39:43


Gurobi 7.0.1 (win64, Python) logging started 01/17/17 14:40:33


Gurobi 7.0.1 (win64, Python) logging started 01/17/17 14:40:53


Gurobi 7.0.1 (win64, Python) logging started 01/17/17 15:49:08


Gurobi 7.0.1 (win64, Python) logging started 01/17/17 15:49:40


Gurobi 7.0.1 (win64, Python) logging started 01/17/17 15:50:02


Gurobi 7.0.1 (win64, Python) logging started 01/17/17 15:55:56


Gurobi 7.0.1 (win64, Python) logging started 01/17/17 15:56:47


Gurobi 7.0.1 (win64, Python) logging started 01/17/17 15:58:21


Gurobi 7.0.1 (win64, Python) logging started 01/17/17 15:58:25


Gurobi 7.0.1 (win64, Python) logging started 01/17/17 15:58:49


Gurobi 7.0.1 (win64, Python) logging started 01/17/17 16:01:01


Gurobi 7.0.1 (win64, Python) logging started 01/17/17 16:02:02


Gurobi 7.0.1 (win64, Python) logging started 01/17/17 16:02:14


Gurobi 7.0.1 (win64, Python) logging started 01/17/17 16:02:19


Gurobi 7.0.1 (win64, Python) logging started 01/18/17 09:14:58


Gurobi 7.0.1 (win64, Python) logging started 01/18/17 09:19:43


Gurobi 7.0.1 (win64, Python) logging started 01/18/17 11:53:50


Gurobi 7.0.1 (win64, Python) logging started 01/18/17 11:54:08


Gurobi 7.0.1 (win64, Python) logging started 01/18/17 12:33:44


Gurobi 7.0.1 (win64, Python) logging started 01/18/17 12:34:55


Gurobi 7.0.1 (win64, Python) logging started 01/18/17 12:45:55


Gurobi 7.0.1 (win64, Python) logging started 01/18/17 12:54:32


Gurobi 7.0.1 (win64, Python) logging started 01/18/17 12:55:41


Gurobi 7.0.1 (win64, Python) logging started 01/18/17 13:00:07


Gurobi 7.0.1 (win64, Python) logging started 01/18/17 13:00:26


Gurobi 7.0.1 (win64, Python) logging started 01/18/17 13:00:34


Gurobi 7.0.1 (win64, Python) logging started 01/18/17 13:46:12


Gurobi 7.0.1 (win64, Python) logging started 01/18/17 13:47:21


Gurobi 7.0.1 (win64, Python) logging started 01/18/17 13:47:35


Gurobi 7.0.1 (win64, Python) logging started 01/18/17 13:48:04


Gurobi 7.0.1 (win64, Python) logging started 01/18/17 13:48:18


Gurobi 7.0.1 (win64, Python) logging started 01/18/17 13:53:28


Gurobi 7.0.1 (win64, Python) logging started 01/18/17 13:56:59


Gurobi 7.0.1 (win64, Python) logging started 01/18/17 13:57:55


Gurobi 7.0.1 (win64, Python) logging started 01/18/17 13:58:02


Gurobi 7.0.1 (win64, Python) logging started 01/18/17 14:05:06


Gurobi 7.0.1 (win64, Python) logging started 01/18/17 14:06:12


Gurobi 7.0.1 (win64, Python) logging started 01/18/17 14:10:43


Gurobi 7.0.1 (win64, Python) logging started 01/18/17 14:10:55


Gurobi 7.0.1 (win64, Python) logging started 01/18/17 14:16:15


Gurobi 7.0.1 (win64, Python) logging started 01/18/17 14:18:22


Gurobi 7.0.1 (win64, Python) logging started 01/18/17 14:18:35


Gurobi 7.0.1 (win64, Python) logging started 01/18/17 14:27:19


Gurobi 7.0.1 (win64, Python) logging started 01/18/17 14:27:59


Gurobi 7.0.1 (win64, Python) logging started 01/18/17 14:28:20


Gurobi 7.0.1 (win64, Python) logging started 01/18/17 14:28:49


Gurobi 7.0.1 (win64, Python) logging started 01/18/17 14:30:01


Gurobi 7.0.1 (win64, Python) logging started 01/18/17 14:31:12


Gurobi 7.0.1 (win64, Python) logging started 01/18/17 14:34:01


Gurobi 7.0.1 (win64, Python) logging started 01/18/17 14:39:59


Gurobi 7.0.1 (win64, Python) logging started 01/18/17 14:41:44


Gurobi 7.0.1 (win64, Python) logging started 01/18/17 14:42:26


Gurobi 7.0.1 (win64, Python) logging started 01/18/17 15:04:05


Gurobi 7.0.1 (win64, Python) logging started 01/18/17 15:04:20


Gurobi 7.0.1 (win64, Python) logging started 01/18/17 15:04:49


Gurobi 7.0.1 (win64, Python) logging started 01/18/17 15:05:00


Gurobi 7.0.1 (win64, Python) logging started 01/18/17 15:05:48


Gurobi 7.0.1 (win64, Python) logging started 01/18/17 15:08:39


Gurobi 7.0.1 (win64, Python) logging started 01/18/17 15:08:43


Gurobi 7.0.1 (win64, Python) logging started 01/18/17 15:08:47


Gurobi 7.0.1 (win64, Python) logging started 01/18/17 15:08:51


Gurobi 7.0.1 (win64, Python) logging started 01/18/17 15:08:54


Gurobi 7.0.1 (win64, Python) logging started 01/18/17 15:10:48


Gurobi 7.0.1 (win64, Python) logging started 01/18/17 15:10:52


Gurobi 7.0.1 (win64, Python) logging started 01/18/17 15:10:54


Gurobi 7.0.1 (win64, Python) logging started 01/18/17 15:10:57


Gurobi 7.0.1 (win64, Python) logging started 01/18/17 15:11:01


Gurobi 7.0.1 (win64, Python) logging started 01/18/17 15:20:23


Gurobi 7.0.1 (win64, Python) logging started 01/18/17 15:20:29


Gurobi 7.0.1 (win64, Python) logging started 01/18/17 15:20:32


Gurobi 7.0.1 (win64, Python) logging started 01/18/17 15:20:34


Gurobi 7.0.1 (win64, Python) logging started 01/18/17 15:20:37


Gurobi 7.0.1 (win64, Python) logging started 01/18/17 15:22:33


Gurobi 7.0.1 (win64, Python) logging started 01/18/17 15:22:38


Gurobi 7.0.1 (win64, Python) logging started 01/18/17 15:22:41


Gurobi 7.0.1 (win64, Python) logging started 01/18/17 15:22:43


Gurobi 7.0.1 (win64, Python) logging started 01/18/17 15:22:46


Gurobi 7.0.1 (win64, Python) logging started 01/19/17 10:09:14


Gurobi 7.0.1 (win64, Python) logging started 01/19/17 10:09:59


Gurobi 7.0.1 (win64, Python) logging started 01/19/17 10:10:51


Gurobi 7.0.1 (win64, Python) logging started 01/19/17 10:13:01


Gurobi 7.0.1 (win64, Python) logging started 01/19/17 10:13:26


Gurobi 7.0.1 (win64, Python) logging started 01/19/17 10:13:48


Gurobi 7.0.1 (win64, Python) logging started 01/19/17 10:14:54


Gurobi 7.0.1 (win64, Python) logging started 01/19/17 10:15:20


Gurobi 7.0.1 (win64, Python) logging started 01/19/17 10:15:24


Gurobi 7.0.1 (win64, Python) logging started 01/19/17 10:16:32


Gurobi 7.0.1 (win64, Python) logging started 01/19/17 10:17:45


Gurobi 7.0.1 (win64, Python) logging started 01/19/17 10:18:47


Gurobi 7.0.1 (win64, Python) logging started 01/19/17 10:18:50


Gurobi 7.0.1 (win64, Python) logging started 01/19/17 10:18:54


Gurobi 7.0.1 (win64, Python) logging started 01/19/17 10:18:58


Gurobi 7.0.1 (win64, Python) logging started 01/19/17 10:19:02


Gurobi 7.0.1 (win64, Python) logging started 01/19/17 10:19:08


Gurobi 7.0.1 (win64, Python) logging started 01/19/17 10:19:14


Gurobi 7.0.1 (win64, Python) logging started 01/19/17 10:21:48


Gurobi 7.0.1 (win64, Python) logging started 01/19/17 10:23:59


Gurobi 7.0.1 (win64, Python) logging started 01/19/17 10:26:55


Gurobi 7.0.1 (win64, Python) logging started 01/19/17 10:28:06


Gurobi 7.0.1 (win64, Python) logging started 01/19/17 10:29:24


Gurobi 7.0.1 (win64, Python) logging started 01/19/17 10:30:21


Gurobi 7.0.1 (win64, Python) logging started 01/19/17 10:31:24


Gurobi 7.0.1 (win64, Python) logging started 01/19/17 10:34:14


Gurobi 7.0.1 (win64, Python) logging started 01/19/17 10:35:17


Gurobi 7.0.1 (win64, Python) logging started 01/19/17 10:36:14


Gurobi 7.0.1 (win64, Python) logging started 01/19/17 10:37:08


Gurobi 7.0.1 (win64, Python) logging started 01/19/17 10:37:26


Gurobi 7.0.1 (win64, Python) logging started 01/19/17 10:37:29


Gurobi 7.0.1 (win64, Python) logging started 01/19/17 10:37:33


Gurobi 7.0.1 (win64, Python) logging started 01/19/17 10:37:36


Gurobi 7.0.1 (win64, Python) logging started 01/19/17 10:37:40


Gurobi 7.0.1 (win64, Python) logging started 01/19/17 10:37:44


Gurobi 7.0.1 (win64, Python) logging started 01/19/17 10:37:49


Gurobi 7.0.1 (win64, Python) logging started 01/19/17 10:37:58


Gurobi 7.0.1 (win64, Python) logging started 01/19/17 10:38:11


Gurobi 7.0.1 (win64, Python) logging started 01/19/17 10:41:30


Gurobi 7.0.1 (win64, Python) logging started 01/19/17 10:41:37


Gurobi 7.0.1 (win64, Python) logging started 01/19/17 10:42:12


Gurobi 7.0.1 (win64, Python) logging started 01/19/17 10:42:17


Gurobi 7.0.1 (win64, Python) logging started 01/19/17 10:58:28


Gurobi 7.0.1 (win64, Python) logging started 01/19/17 10:58:38


Gurobi 7.0.1 (win64, Python) logging started 01/19/17 10:58:46


Gurobi 7.0.1 (win64, Python) logging started 01/19/17 10:58:53


Gurobi 7.0.1 (win64, Python) logging started 01/19/17 10:58:59


Gurobi 7.0.1 (win64, Python) logging started 01/19/17 10:59:05


Gurobi 7.0.1 (win64, Python) logging started 01/19/17 10:59:12


Gurobi 7.0.1 (win64, Python) logging started 01/19/17 10:59:21


Gurobi 7.0.1 (win64, Python) logging started 01/19/17 10:59:30


Gurobi 7.0.1 (win64, Python) logging started 01/19/17 11:01:00


Gurobi 7.0.1 (win64, Python) logging started 01/19/17 11:01:12


Gurobi 7.0.1 (win64, Python) logging started 01/19/17 11:05:04


Gurobi 7.0.1 (win64, Python) logging started 01/19/17 11:05:13


Gurobi 7.0.1 (win64, Python) logging started 01/19/17 11:05:20


Gurobi 7.0.1 (win64, Python) logging started 01/19/17 11:05:26


Gurobi 7.0.1 (win64, Python) logging started 01/19/17 11:05:32


Gurobi 7.0.1 (win64, Python) logging started 01/19/17 11:05:36


Gurobi 7.0.1 (win64, Python) logging started 01/19/17 11:05:41


Gurobi 7.0.1 (win64, Python) logging started 01/19/17 11:05:44


Gurobi 7.0.1 (win64, Python) logging started 01/19/17 11:05:47


Gurobi 7.0.1 (win64, Python) logging started 01/19/17 11:05:51


Gurobi 7.0.1 (win64, Python) logging started 01/19/17 11:07:14


Gurobi 7.0.1 (win64, Python) logging started 01/19/17 11:07:42


Gurobi 7.0.1 (win64, Python) logging started 01/19/17 11:07:58


Gurobi 7.0.1 (win64, Python) logging started 01/19/17 11:08:07


Gurobi 7.0.1 (win64, Python) logging started 01/19/17 11:08:14


Gurobi 7.0.1 (win64, Python) logging started 01/19/17 11:08:19


Gurobi 7.0.1 (win64, Python) logging started 01/19/17 11:08:24


Gurobi 7.0.1 (win64, Python) logging started 01/19/17 11:08:28


Gurobi 7.0.1 (win64, Python) logging started 01/19/17 11:08:33


Gurobi 7.0.1 (win64, Python) logging started 01/19/17 11:08:37

